&bands
    prefix = '1'
    outdir = './out'
    filband = 'bands.dat'
/

