&bands
    prefix = 'Na_expansion01'
    outdir = './out'
    filband = 'bands.dat'
/

