&control
    disk_io = 'high',
    prefix = 'Na_expansion01',
    calculation ='nscf',
    restart_mode = 'from_scratch',
    outdir = './out',
    pseudo_dir = '/global/home/hpc4995/potential/'
    tstress = .true.
    tprnfor = .true.
 /
 &system
    ibrav=0,
    nat=3,
     ntyp=2,
    ecutwfc=80,
    occupations='smearing',
    smearing = 'gaussian',
    degauss = 0.02,
	nbnd = 40,
 /
 &electrons
    mixing_mode='plain',
    diagonalization='david',
/
 &ions
    ion_dynamics = 'bfgs'
 /
 &cell
    cell_factor = 6
 /
CELL_PARAMETERS {angstrom}

   3.223454319   3.223454315   0.000273414
   0.000273413   3.223454315   3.223454317
   3.223454316   0.000273410   3.223454314


ATOMIC_SPECIES

K 39.0983 K.pbe-spn-rrkjus_psl.1.0.0.UPF

O  15.999 O.pbe-n-rrkjus_psl.1.0.0.UPF



ATOMIC_POSITIONS {angstrom}

K             1.6122975139        1.6122975139        1.6122975140
O             0.0000000000       -0.0000000000        0.0000000000
K            -1.6122975139       -1.6122975139       -1.6122975140



K_POINTS {crystal_b}
   43
0	0	0	1	!	Γ
0.0625	0	0	1		
0.125	0	0	1		
0.1875	0	0	1		
0.25	0	0	1		
0.3125	0	0	1		
0.375	0	0	1		
0.4375	0	0	1		
0.5	0	0	1	!	X
0.5	0.125	0	1		
0.5	0.25	0	1		
0.5	0.375	0	1		
0.5	0.5	0	1	!	W
0.5	0.5	0.125	1		
0.5	0.5	0.25	1		
0.5	0.5	0.375	1		
0.5	0.5	0.5	1	!	K
0.4583	0.4583	0.4583	1		
0.4167	0.4167	0.4167	1		
0.375	0.375	0.375	1		
0.3333	0.3333	0.3333	1		
0.2917	0.2917	0.2917	1		
0.25	0.25	0.25	1		
0.2083	0.2083	0.2083	1		
0.1667	0.1667	0.1667	1		
0.125	0.125	0.125	1		
0.0833	0.0833	0.0833	1		
0.0417	0.0417	0.0417	1		
0	0	0	1	!	Γ
0	0	0.0625	1		
0	0	0.125	1		
0	0	0.1875	1		
0	0	0.25	1		
0	0	0.3125	1		
0	0	0.375	1		
0	0	0.4375	1		
0	0	0.5	1	!	L
0.0833	0	0.5	1		
0.1667	0	0.5	1		
0.25	0	0.5	1		
0.3333	0	0.5	1		
0.4167	0	0.5	1		
0.5	0	0.5	1	!	X

