&control
    disk_io = 'high',
    
    prefix = 'Na_expansion01',

    calculation ='nscf',
    restart_mode = 'from_scratch',
    outdir = './out',
    pseudo_dir = '/global/home/hpc4995/potential/'
    tstress = .true.
    tprnfor = .true.
 /
 &system
    ibrav=0,
    nat=3,
     ntyp=2,
    ecutwfc=80,
    occupations='smearing',
    smearing = 'gaussian',
    degauss = 0.02,
	nbnd = 40,
 /
 &electrons
    mixing_mode='plain',
    diagonalization='david',
/
 &ions
    ion_dynamics = 'bfgs'
 /
 &cell
    cell_factor = 6
 /
CELL_PARAMETERS {angstrom}

   3.223454319   3.223454315   0.000273414
   0.000273413   3.223454315   3.223454317
   3.223454316   0.000273410   3.223454314


ATOMIC_SPECIES

K 39.0983 K.pbe-spn-rrkjus_psl.1.0.0.UPF

O  15.999 O.pbe-n-rrkjus_psl.0.1.UPF

ATOMIC_POSITIONS {angstrom}

K             1.6122975139        1.6122975139        1.6122975140
O             0.0000000000       -0.0000000000        0.0000000000
K            -1.6122975139       -1.6122975139       -1.6122975140


K_POINTS {automatic}
   14 14 14 0 0 0  ! Use a denser k-point grid than SCF

