&control
    disk_io = 'high',
    
    prefix = 'Na_expansion01',


    calculation ='nscf',
    outdir = './out',
    pseudo_dir = '/global/home/hpc4995/potential/'
    tstress = .true.
    tprnfor = .true.
 /
 &system
    ibrav=0,
    nat=3,
     ntyp=2,
         ecutwfc=66,
    ecutrho=323,

    occupations='smearing',
    smearing = 'gaussian',
    degauss = 0.02,
	nbnd = 40,
 /
 &electrons
    mixing_mode='plain',
    diagonalization='david',
/
 &ions
    ion_dynamics = 'bfgs'
 /
 &cell
    cell_factor = 6
 /
CELL_PARAMETERS {angstrom}

   2.837647005   2.837647000   0.001780273
   0.001780272   2.837647000   2.837647003
   2.837647001   0.001780267   2.837647000

ATOMIC_SPECIES
Na 22.99 Na.pbe-spnl-rrkjus_psl.1.0.0.UPF
O  15.999 O.pbe-n-rrkjus_psl.0.1.UPF


ATOMIC_POSITIONS (angstrom)
Na            1.4191451482        1.4191451491        1.4191451486
O            -0.0000000000        0.0000000000        0.0000000000
Na           -1.4191451482       -1.4191451491       -1.4191451486

K_POINTS {automatic}
   15 15 15 0 0 0  ! Use a denser k-point grid than SCF

