&control
    disk_io = 'high',
    prefix = 'Na_expansion01',
    calculation ='vc-relax',
    restart_mode = 'restart',
    outdir = './out',
    pseudo_dir = '/global/home/hpc4995/potential/'
    tstress = .true.
    tprnfor = .true.
 /
 &system
    ibrav=0,
    nat=3,
     ntyp=2,
    ecutwfc=66,
    ecutrho=323,
    occupations='smearing',
    smearing = 'gaussian',
    degauss = 0.02,

 /
 &electrons
    mixing_mode='plain',
    diagonalization='david',
/
 &ions
    ion_dynamics = 'bfgs'
 /
 &cell
    cell_factor = 6
 /
CELL_PARAMETERS {angstrom}
   3.283830639   3.283830635   0.001110972
   0.001110971   3.283830635   3.283830637
   3.283830636   0.001110968   3.283830634
ATOMIC_SPECIES

K 39.0983 K.pbe-spn-rrkjus_psl.1.0.0.UPF

O  15.999 O.pbe-n-rrkjus_psl.0.1.UPF

ATOMIC_POSITIONS {angstrom}

K 1.58 1.58 1.58
O 0 0 0
K -1.58 -1.58 -1.58

K_POINTS automatic
13 13 13 0 0 0

