&control
    disk_io = 'high',
    prefix = '1',
    calculation ='nscf',
    outdir = './out',
    pseudo_dir = '/home/haojia/qe_pseudo/'
    tstress = .true.
    tprnfor = .true.
 /
 &system
    ibrav=0,
    nat=3
    ntyp=2,
ecutwfc = 160
ecutrho = 640
    
    occupations='smearing',
    smearing = 'gaussian',
    degauss = 0.02,
input_dft  = 'R2SCAN'
    nbnd = 40,


/
 &electrons
    mixing_mode='plain',
    diagonalization='david',
    electron_maxstep=1000,
/
 &ions
    ion_dynamics = 'bfgs'
 /
 &cell
    cell_factor = 6
 /
CELL_PARAMETERS {angstrom}

   3.180925108   3.180925104   0.000089145
   0.000089144   3.180925104   3.180925106
   3.180925105   0.000089141   3.180925103


ATOMIC_SPECIES

K 39.098  K_ONCV_PBE-1.2.upf

O  15.999 O_ONCV_PBE-1.2.upf
ATOMIC_POSITIONS {angstrom}

K             1.5906914993        1.5906914993        1.5906914994
O            -0.0000000000       -0.0000000000        0.0000000000
K            -1.5906914993       -1.5906914993       -1.5906914994

K_POINTS {crystal_b}
   43
0       0       0       1       !       Γ
0.0625  0       0       1
0.125   0       0       1
0.1875  0       0       1
0.25    0       0       1
0.3125  0       0       1
0.375   0       0       1
0.4375  0       0       1
0.5     0       0       1       !       X
0.5     0.125   0       1
0.5     0.25    0       1
0.5     0.375   0       1
0.5     0.5     0       1       !       W
0.5     0.5     0.125   1
0.5     0.5     0.25    1
0.5     0.5     0.375   1
0.5     0.5     0.5     1       !       K
0.4583  0.4583  0.4583  1
0.4167  0.4167  0.4167  1
0.375   0.375   0.375   1
0.3333  0.3333  0.3333  1
0.2917  0.2917  0.2917  1
0.25    0.25    0.25    1
0.2083  0.2083  0.2083  1
0.1667  0.1667  0.1667  1
0.125   0.125   0.125   1
0.0833  0.0833  0.0833  1
0.0417  0.0417  0.0417  1
0       0       0       1       !       Γ
0       0       0.0625  1
0       0       0.125   1
0       0       0.1875  1
0       0       0.25    1
0       0       0.3125  1
0       0       0.375   1
0       0       0.4375  1
0       0       0.5     1       !       L
0.0833  0       0.5     1
0.1667  0       0.5     1
0.25    0       0.5     1
0.3333  0       0.5     1
0.4167  0       0.5     1
0.5     0       0.5     1       !       X


